<number of tasks>
50

<cycle time>
1000

<order strength>
0.199


<task times>
1 253
2 162
3 37
4 370
5 155
6 195
7 117
8 154
9 170
10 99
11 122
12 78
13 190
14 256
15 166
16 377
17 91
18 346
19 396
20 477
21 308
22 204
23 102
24 157
25 170
26 95
27 67
28 168
29 47
30 58
31 72
32 114
33 174
34 521
35 161
36 170
37 249
38 50
39 110
40 526
41 102
42 191
43 542
44 459
45 269
46 195
47 206
48 61
49 267
50 103

<precedence relations>
1,9
2,11
3,12
4,10
4,14
5,22
6,30
7,13
7,15
9,17
10,16
11,18
12,19
13,20
13,22
13,31
15,19
15,21
16,23
17,24
18,25
19,26
19,43
20,35
22,27
23,28
24,29
25,29
26,30
26,31
27,30
27,32
28,33
29,34
30,40
32,35
33,37
34,38
35,36
35,39
35,40
35,41
35,42
35,43
35,44
35,45
36,46
37,47
38,47
39,49
41,49
41,50
44,48

<end>
